solution status: optimal solution found
objective value:                     260766.073591692
d11(0,0)                                            1 	(obj:0)
d11(1,1)                                            1 	(obj:0)
d11(1,2)                                            1 	(obj:0)
d11(2,3)                                            1 	(obj:0)
d11(2,4)                                            1 	(obj:0)
d11(2,5)                                            1 	(obj:0)
d11(2,6)                                            1 	(obj:0)
d11(3,7)                                            1 	(obj:0)
d11(3,9)                                            1 	(obj:0)
d11(3,10)                                           1 	(obj:0)
d11(3,11)                                           1 	(obj:0)
d11(3,12)                                           1 	(obj:0)
d11(3,13)                                           1 	(obj:0)
d11(3,14)                                           1 	(obj:0)
d11(4,15)                                           1 	(obj:0)
d11(4,17)                                           1 	(obj:0)
d11(4,18)                                           1 	(obj:0)
d11(4,19)                                           1 	(obj:0)
d11(4,21)                                           1 	(obj:0)
d11(4,23)                                           1 	(obj:0)
d11(4,25)                                           1 	(obj:0)
d11(4,27)                                           1 	(obj:0)
d11(4,29)                                           1 	(obj:0)
d11(5,31)                                           1 	(obj:0)
d11(5,32)                                           1 	(obj:0)
d11(5,33)                                           1 	(obj:0)
d11(5,34)                                           1 	(obj:0)
d11(5,35)                                           1 	(obj:0)
d11(5,36)                                           1 	(obj:0)
d11(5,37)                                           1 	(obj:0)
d11(5,38)                                           1 	(obj:0)
d11(5,39)                                           1 	(obj:0)
d11(5,40)                                           1 	(obj:0)
d11(5,41)                                           1 	(obj:0)
d11(5,42)                                           1 	(obj:0)
d11(5,43)                                           1 	(obj:0)
d11(5,44)                                           1 	(obj:0)
d11(5,45)                                           1 	(obj:0)
d11(5,46)                                           1 	(obj:0)
d11(5,47)                                           1 	(obj:0)
d11(5,48)                                           1 	(obj:0)
d11(5,49)                                           1 	(obj:0)
d11(5,50)                                           1 	(obj:0)
d11(5,51)                                           1 	(obj:0)
d11(5,52)                                           1 	(obj:0)
d11(5,53)                                           1 	(obj:0)
d11(5,54)                                           1 	(obj:0)
d11(5,55)                                           1 	(obj:0)
d11(5,56)                                           1 	(obj:0)
d11(5,57)                                           1 	(obj:0)
d11(5,58)                                           1 	(obj:0)
d11(5,59)                                           1 	(obj:0)
d11(5,61)                                           1 	(obj:0)
d11(6,63)                                           1 	(obj:0)
d11(6,65)                                           1 	(obj:0)
d11(6,67)                                           1 	(obj:0)
d11(6,69)                                           1 	(obj:0)
d11(6,71)                                           1 	(obj:0)
d11(6,73)                                           1 	(obj:0)
d11(6,75)                                           1 	(obj:0)
d11(6,77)                                           1 	(obj:0)
d11(6,79)                                           1 	(obj:0)
d11(6,81)                                           1 	(obj:0)
d11(6,83)                                           1 	(obj:0)
d11(6,85)                                           1 	(obj:0)
d11(6,87)                                           1 	(obj:0)
d11(6,89)                                           1 	(obj:0)
d11(6,91)                                           1 	(obj:0)
d11(6,93)                                           1 	(obj:0)
d11(6,95)                                           1 	(obj:0)
d11(6,97)                                           1 	(obj:0)
d11(6,99)                                           1 	(obj:0)
d11(6,101)                                          1 	(obj:0)
d11(6,103)                                          1 	(obj:0)
d11(6,105)                                          1 	(obj:0)
d11(6,107)                                          1 	(obj:0)
d11(6,109)                                          1 	(obj:0)
d11(6,111)                                          1 	(obj:0)
d11(6,113)                                          1 	(obj:0)
d11(6,115)                                          1 	(obj:0)
d11(6,117)                                          1 	(obj:0)
d11(6,119)                                          1 	(obj:0)
d11(6,121)                                          1 	(obj:0)
d11(6,123)                                          1 	(obj:0)
d11(6,125)                                          1 	(obj:0)
d12(6,64)                                           1 	(obj:0)
d12(6,66)                                           1 	(obj:0)
d12(6,68)                                           1 	(obj:0)
d12(6,70)                                           1 	(obj:0)
d12(6,72)                                           1 	(obj:0)
d12(6,74)                                           1 	(obj:0)
d12(6,76)                                           1 	(obj:0)
d12(6,78)                                           1 	(obj:0)
d12(6,80)                                           1 	(obj:0)
d12(6,82)                                           1 	(obj:0)
d12(6,84)                                           1 	(obj:0)
d12(6,86)                                           1 	(obj:0)
d12(6,88)                                           1 	(obj:0)
d12(6,90)                                           1 	(obj:0)
d12(6,92)                                           1 	(obj:0)
d12(6,94)                                           1 	(obj:0)
d12(6,96)                                           1 	(obj:0)
d12(6,98)                                           1 	(obj:0)
d12(6,100)                                          1 	(obj:0)
d12(6,102)                                          1 	(obj:0)
d12(6,104)                                          1 	(obj:0)
d12(6,106)                                          1 	(obj:0)
d12(6,108)                                          1 	(obj:0)
d12(6,110)                                          1 	(obj:0)
d12(6,112)                                          1 	(obj:0)
d12(6,114)                                          1 	(obj:0)
d12(6,116)                                          1 	(obj:0)
d12(6,118)                                          1 	(obj:0)
d12(6,120)                                          1 	(obj:0)
d12(6,122)                                          1 	(obj:0)
d12(6,124)                                          1 	(obj:0)
d12(6,126)                                          1 	(obj:0)
d21(4,15)                                           1 	(obj:0)
d21(5,31)                                           1 	(obj:0)
d21(5,32)                                           1 	(obj:0)
d21(5,33)                                           1 	(obj:0)
d21(5,34)                                           1 	(obj:0)
d21(5,35)                                           1 	(obj:0)
d21(5,36)                                           1 	(obj:0)
d21(5,39)                                           1 	(obj:0)
d21(5,40)                                           1 	(obj:0)
d21(5,47)                                           1 	(obj:0)
d21(5,48)                                           1 	(obj:0)
d21(5,51)                                           1 	(obj:0)
d21(6,63)                                           1 	(obj:0)
d21(6,64)                                           1 	(obj:0)
d21(6,65)                                           1 	(obj:0)
d21(6,66)                                           1 	(obj:0)
d21(6,67)                                           1 	(obj:0)
d21(6,68)                                           1 	(obj:0)
d21(6,69)                                           1 	(obj:0)
d21(6,70)                                           1 	(obj:0)
d21(6,71)                                           1 	(obj:0)
d21(6,72)                                           1 	(obj:0)
d21(6,73)                                           1 	(obj:0)
d21(6,74)                                           1 	(obj:0)
d21(6,75)                                           1 	(obj:0)
d21(6,76)                                           1 	(obj:0)
d21(6,79)                                           1 	(obj:0)
d21(6,80)                                           1 	(obj:0)
d21(6,81)                                           1 	(obj:0)
d21(6,82)                                           1 	(obj:0)
d21(6,83)                                           1 	(obj:0)
d21(6,84)                                           1 	(obj:0)
d21(6,87)                                           1 	(obj:0)
d21(6,88)                                           1 	(obj:0)
d21(6,95)                                           1 	(obj:0)
d21(6,96)                                           1 	(obj:0)
d21(6,97)                                           1 	(obj:0)
d21(6,98)                                           1 	(obj:0)
d21(6,99)                                           1 	(obj:0)
d21(6,100)                                          1 	(obj:0)
d21(6,103)                                          1 	(obj:0)
d21(6,104)                                          1 	(obj:0)
d21(6,105)                                          1 	(obj:0)
d21(6,107)                                          1 	(obj:0)
d21(6,111)                                          1 	(obj:0)
d21(6,112)                                          1 	(obj:0)
d21(6,113)                                          1 	(obj:0)
y2(6,100)                            894.405442897924 	(obj:0)
y2(6,102)                            894.405442897924 	(obj:0)
y2(6,104)                            894.405442897924 	(obj:0)
y2(6,106)                            894.405442897924 	(obj:0)
y2(6,108)                            894.405442897924 	(obj:0)
y2(6,110)                            894.405442897924 	(obj:0)
y2(6,112)                            894.405442897924 	(obj:0)
y2(6,114)                            894.405442897924 	(obj:0)
y2(6,116)                            894.405442897924 	(obj:0)
y2(6,118)                            894.405442897924 	(obj:0)
y2(6,120)                            894.405442897924 	(obj:0)
y2(6,122)                            894.405442897924 	(obj:0)
y2(6,124)                            894.405442897924 	(obj:0)
y2(6,126)                            894.405442897924 	(obj:0)
STE(1,1)                             9269.99974777772 	(obj:0)
STE(0,0)                                        14175 	(obj:0)
STE(1,2)                             10928.2496466665 	(obj:0)
STE(2,3)                             6477.74984888886 	(obj:0)
STE(2,4)                             8135.99974777767 	(obj:0)
STE(2,5)                             8135.99974777767 	(obj:0)
STE(2,6)                             9794.24964666649 	(obj:0)
STE(3,7)                             3685.49995000004 	(obj:0)
STE(3,8)                             5343.74984888886 	(obj:0)
STE(3,9)                             5343.74984888886 	(obj:0)
STE(3,10)                            7001.99974777767 	(obj:0)
STE(3,11)                            5343.74984888886 	(obj:0)
STE(3,12)                            7001.99974777767 	(obj:0)
STE(3,13)                            7001.99974777767 	(obj:0)
STE(3,14)                            8660.24964666649 	(obj:0)
STE(4,15)                            893.250051111211 	(obj:0)
STE(4,16)                            2551.49995000004 	(obj:0)
STE(4,17)                            2551.49995000003 	(obj:0)
STE(4,18)                            4209.74984888885 	(obj:0)
STE(4,19)                            2551.49995000003 	(obj:0)
STE(4,20)                            4209.74984888886 	(obj:0)
STE(4,21)                            4209.74984888885 	(obj:0)
STE(4,22)                            5867.99974777767 	(obj:0)
STE(4,23)                            2551.49995000003 	(obj:0)
STE(4,24)                            4209.74984888886 	(obj:0)
STE(4,25)                            4209.74984888885 	(obj:0)
STE(4,26)                            5867.99974777767 	(obj:0)
STE(4,27)                            4209.74984888885 	(obj:0)
STE(4,28)                            5867.99974777767 	(obj:0)
STE(4,29)                            5867.99974777766 	(obj:0)
STE(4,30)                            7526.24964666649 	(obj:0)
STE(5,31)                           -1898.99984777764 	(obj:0)
STE(5,32)                           -240.749948888817 	(obj:0)
STE(5,33)                           -240.749948888807 	(obj:0)
STE(5,34)                            1417.49995000001 	(obj:0)
STE(5,35)                           -240.749948888817 	(obj:0)
STE(5,36)                            1417.49995000003 	(obj:0)
STE(5,37)                                  1417.49995 	(obj:0)
STE(5,38)                            3075.74984888885 	(obj:0)
STE(5,39)                           -240.749948888817 	(obj:0)
STE(5,40)                            1417.49995000003 	(obj:0)
STE(5,41)                            1417.49995000001 	(obj:0)
STE(5,42)                            3075.74984888883 	(obj:0)
STE(5,43)                                  1417.49995 	(obj:0)
STE(5,44)                            3075.74984888882 	(obj:0)
STE(5,45)                            3075.74984888883 	(obj:0)
STE(5,46)                            4733.99974777767 	(obj:0)
STE(5,47)                           -240.749948888817 	(obj:0)
STE(5,48)                            1417.49995000003 	(obj:0)
STE(5,49)                            1417.49995000001 	(obj:0)
STE(5,50)                            3075.74984888886 	(obj:0)
STE(5,51)                                  1417.49995 	(obj:0)
STE(5,52)                            3075.74984888885 	(obj:0)
STE(5,53)                            3075.74984888883 	(obj:0)
STE(5,54)                            4733.99974777765 	(obj:0)
STE(5,55)                                  1417.49995 	(obj:0)
STE(5,56)                            3075.74984888882 	(obj:0)
STE(5,57)                            3075.74984888883 	(obj:0)
STE(5,58)                            4733.99974777767 	(obj:0)
STE(5,59)                            3075.74984888882 	(obj:0)
STE(5,60)                            4733.99974777766 	(obj:0)
STE(5,61)                            4733.99974777765 	(obj:0)
STE(5,62)                            6392.24964666649 	(obj:0)
STE(6,63)                           -3557.24974666649 	(obj:0)
STE(6,64)                           -2183.31467702461 	(obj:0)
STE(6,65)                           -1898.99984777767 	(obj:0)
STE(6,66)                           -525.064778135789 	(obj:0)
STE(6,67)                           -1898.99984777766 	(obj:0)
STE(6,68)                           -525.064778135779 	(obj:0)
STE(6,69)                           -240.749948888846 	(obj:0)
STE(6,70)                            1133.18512075304 	(obj:0)
STE(6,71)                           -1898.99984777767 	(obj:0)
STE(6,72)                           -525.064778135789 	(obj:0)
STE(6,73)                           -240.749948888827 	(obj:0)
STE(6,74)                            1133.18512075306 	(obj:0)
STE(6,75)                           -240.749948888856 	(obj:0)
STE(6,76)                            1133.18512075303 	(obj:0)
STE(6,77)                                  1417.49995 	(obj:0)
STE(6,78)                            2791.43501964187 	(obj:0)
STE(6,79)                           -1898.99984777767 	(obj:0)
STE(6,80)                           -525.064778135789 	(obj:0)
STE(6,81)                           -240.749948888827 	(obj:0)
STE(6,82)                            1133.18512075306 	(obj:0)
STE(6,83)                           -240.749948888846 	(obj:0)
STE(6,84)                            1133.18512075304 	(obj:0)
STE(6,85)                            1417.49994999997 	(obj:0)
STE(6,86)                            2791.43501964186 	(obj:0)
STE(6,87)                           -240.749948888856 	(obj:0)
STE(6,88)                            1133.18512075303 	(obj:0)
STE(6,89)                            1417.49994999996 	(obj:0)
STE(6,90)                            2791.43501964185 	(obj:0)
STE(6,91)                            1417.49994999999 	(obj:0)
STE(6,92)                            2791.43501964186 	(obj:0)
STE(6,93)                            3075.74984888882 	(obj:0)
STE(6,94)                             4449.6849185307 	(obj:0)
STE(6,95)                           -1898.99984777767 	(obj:0)
STE(6,96)                           -525.064778135789 	(obj:0)
STE(6,97)                           -240.749948888827 	(obj:0)
STE(6,98)                            1133.18512075306 	(obj:0)
STE(6,99)                           -240.749948888846 	(obj:0)
STE(6,100)                           1133.18512075304 	(obj:0)
STE(6,101)                                 1417.49995 	(obj:0)
STE(6,102)                           2791.43501964188 	(obj:0)
STE(6,103)                          -240.749948888856 	(obj:0)
STE(6,104)                           1133.18512075303 	(obj:0)
STE(6,105)                           1417.49994999997 	(obj:0)
STE(6,106)                           2791.43501964187 	(obj:0)
STE(6,107)                           1417.49994999997 	(obj:0)
STE(6,108)                           2791.43501964186 	(obj:0)
STE(6,109)                            3075.7498488888 	(obj:0)
STE(6,110)                           4449.68491853067 	(obj:0)
STE(6,111)                          -240.749948888856 	(obj:0)
STE(6,112)                           1133.18512075303 	(obj:0)
STE(6,113)                           1417.49994999996 	(obj:0)
STE(6,114)                           2791.43501964185 	(obj:0)
STE(6,115)                           1417.49994999997 	(obj:0)
STE(6,116)                           2791.43501964186 	(obj:0)
STE(6,117)                           3075.74984888882 	(obj:0)
STE(6,118)                            4449.6849185307 	(obj:0)
STE(6,119)                           1417.49994999993 	(obj:0)
STE(6,120)                           2791.43501964185 	(obj:0)
STE(6,121)                           3075.74984888881 	(obj:0)
STE(6,122)                           4449.68491853069 	(obj:0)
STE(6,123)                           3075.74984888879 	(obj:0)
STE(6,124)                           4449.68491853067 	(obj:0)
STE(6,125)                           4733.99974777764 	(obj:0)
STE(6,126)                           6107.93481741952 	(obj:0)
y1(6,99)                              471.82490899997 	(obj:0)
y1(6,101)                             471.82490899997 	(obj:0)
y1(6,103)                             471.82490899997 	(obj:0)
y1(6,105)                             471.82490899999 	(obj:0)
y1(6,107)                             471.82490899997 	(obj:0)
y1(6,109)                            471.824908999959 	(obj:0)
y1(6,111)                             471.82490899997 	(obj:0)
y1(6,113)                             471.82490899997 	(obj:0)
y1(6,115)                             471.82490899997 	(obj:0)
y1(6,117)                             471.82490899997 	(obj:0)
y1(6,119)                            471.824908999996 	(obj:0)
y1(6,121)                             471.82490899997 	(obj:0)
y1(6,123)                             471.82490899997 	(obj:0)
y1(6,125)                             471.82490899997 	(obj:0)
BG(5)                                4196.29249897959 	(obj:10)
BG(6)                                108.502032484229 	(obj:10)
AVE(1)                               3259.55177567504 	(obj:0)
AVE(2)                               3259.55588804169 	(obj:0)
WB(3)                                3579.36165209166 	(obj:0)
AVE(3)                               3579.36165209166 	(obj:0)
AVE(4)                               3579.36576445831 	(obj:0)
WB(5)                                3472.77007794174 	(obj:0)
AVE(5)                               3472.77007794174 	(obj:0)
AVE(6)                                3046.3618950668 	(obj:0)
WG(1)                                3259.55177567504 	(obj:10)
WG(2)                                3259.55588804169 	(obj:10)
WG(4)                                3579.36576445831 	(obj:10)
WG(6)                                 3046.3618950668 	(obj:10)
BG(1)                                2877.02166003934 	(obj:10)
BG(2)                                936.736610937876 	(obj:10)
BG(3)                                4196.29249897959 	(obj:10)
BG(4)                                616.926734521282 	(obj:10)
y1(1,1)                              3393.90022700005 	(obj:0)
y1(1,2)                              1901.47531800012 	(obj:0)
y1(2,3)                              1492.42490899998 	(obj:0)
y1(2,5)                              1492.42490899998 	(obj:0)
y1(3,7)                              1492.42490899994 	(obj:0)
y1(3,9)                              1492.42490899994 	(obj:0)
y1(3,11)                             1492.42490899994 	(obj:0)
y1(3,13)                             1492.42490899994 	(obj:0)
y1(4,15)                             1492.42490899994 	(obj:0)
y1(4,17)                             1492.42490899994 	(obj:0)
y1(4,19)                             1492.42490899994 	(obj:0)
y1(4,21)                             1492.42490899994 	(obj:0)
y1(4,23)                             1492.42490899994 	(obj:0)
y1(4,25)                             1492.42490899994 	(obj:0)
y1(4,27)                             1492.42490899994 	(obj:0)
y1(4,29)                             1492.42490899994 	(obj:0)
y1(5,31)                             1492.42490899996 	(obj:0)
y1(5,33)                             1492.42490899996 	(obj:0)
y1(5,35)                             1492.42490899996 	(obj:0)
y1(5,37)                             1492.42490899996 	(obj:0)
y1(5,39)                             1492.42490899996 	(obj:0)
y1(5,41)                             1492.42490899996 	(obj:0)
y1(5,43)                             1492.42490899996 	(obj:0)
y1(5,45)                             1492.42490899996 	(obj:0)
y1(5,47)                             1492.42490899996 	(obj:0)
y1(5,49)                             1492.42490899996 	(obj:0)
y1(5,51)                             1492.42490899996 	(obj:0)
y1(5,53)                             1492.42490899996 	(obj:0)
y1(5,55)                             1492.42490899996 	(obj:0)
y1(5,57)                             1492.42490899996 	(obj:0)
y1(5,59)                             1492.42490899996 	(obj:0)
y1(5,61)                             1492.42490899996 	(obj:0)
y1(6,63)                              471.82490899997 	(obj:0)
y1(6,65)                              471.82490899997 	(obj:0)
y1(6,67)                              471.82490899997 	(obj:0)
y1(6,69)                              471.82490899997 	(obj:0)
y1(6,71)                              471.82490899997 	(obj:0)
y1(6,73)                              471.82490899997 	(obj:0)
y1(6,75)                              471.82490899997 	(obj:0)
y1(6,77)                             471.824908999959 	(obj:0)
y1(6,79)                              471.82490899997 	(obj:0)
y1(6,81)                              471.82490899997 	(obj:0)
y1(6,83)                              471.82490899997 	(obj:0)
y1(6,85)                              471.82490899997 	(obj:0)
y1(6,87)                              471.82490899997 	(obj:0)
y1(6,89)                             471.824908999976 	(obj:0)
y1(6,91)                             471.824908999959 	(obj:0)
y1(6,93)                              471.82490899997 	(obj:0)
y1(6,95)                              471.82490899997 	(obj:0)
y1(6,97)                              471.82490899997 	(obj:0)
y2(6,64)                             894.405442897924 	(obj:0)
y2(6,66)                             894.405442897924 	(obj:0)
y2(6,68)                             894.405442897924 	(obj:0)
y2(6,70)                             894.405442897924 	(obj:0)
y2(6,72)                             894.405442897924 	(obj:0)
y2(6,74)                             894.405442897924 	(obj:0)
y2(6,76)                             894.405442897924 	(obj:0)
y2(6,78)                             894.405442897924 	(obj:0)
y2(6,80)                             894.405442897924 	(obj:0)
y2(6,82)                             894.405442897924 	(obj:0)
y2(6,84)                             894.405442897924 	(obj:0)
y2(6,86)                             894.405442897924 	(obj:0)
y2(6,88)                             894.405442897924 	(obj:0)
y2(6,90)                             894.405442897924 	(obj:0)
y2(6,92)                             894.405442897924 	(obj:0)
y2(6,94)                             894.405442897924 	(obj:0)
y2(6,96)                             894.405442897924 	(obj:0)
y2(6,98)                             894.405442897924 	(obj:0)
